Route #1: 51 53 20 27 23 31 30 14 45 60 94
Route #2: 9 49
Route #3: 92 91 52 86 93 13 34 74 11 6
Route #4: 39 70 22 64 55 5 96 75
Route #5: 41 56 77 85 44 18 62 83 40 15 82
Route #6: 24 61 71 84 90 25 2 87 4 57 17
Route #7: 79 98 38 19 21 58 69 46 65
Route #8: 78 73 8 97 66 10 89 99 67 59 100
Route #9: 33 81 3 29 35 54 68 7 48
Route #10: 16 88 63 1 47 43 76 42
Route #11: 26 12 80 50 28 32 72 36 37 95
Cost 20390
